p cnf 20 20
-6 -17 8 0
-11 17 -19 0
17 15 -18 0
17 -4 13 0
13 -7 -19 0
-5 19 1 0
12 10 -15 0
-18 -5 15 0
16 -18 11 0
7 5 -15 0
-17 -15 6 0
2 3 -18 0
-8 1 2 0
3 7 8 0
11 -13 20 0
3 -4 -5 0
-9 -10 7 0
7 3 4 0
-11 -16 -3 0
3 -8 -11 0
